c Random 8-CNF over 30 variables and 300 clauses
c Generated with `cnfgen`
c (C) 2012-2016 Massimo Lauria <lauria.massimo@gmail.com>
c https://massimolauria.github.io/cnfgen
c
c COMMAND LINE: cnfgen --output tmp-8-30-300.dimacs --output-format dimacs randkcnf 8 30 300
c
c sdimacs generated by gen-sdimacs
c
p cnf 30 300
r 0.5 1 2 3 4 5 6 7 8 9 10 11 12 13 14 15 0
e  16 17 18 19 20 21 22 23 24 25 26 27 28 29 30 0
-1 -3 6 8 -15 -23 26 28 0
3 12 16 19 26 28 29 30 0
-4 5 10 -12 -20 -21 -23 24 0
-3 6 9 -14 18 22 24 26 0
-1 4 -11 -12 22 25 -27 -30 0
1 -5 8 9 10 12 -22 -25 0
-2 -5 6 7 12 13 -14 -30 0
5 8 -13 -16 -17 18 -26 -28 0
-2 -3 -5 6 -9 25 28 -29 0
1 9 -15 16 21 22 -27 -28 0
4 10 -11 -15 17 20 -24 27 0
8 -12 -13 16 25 26 -28 -29 0
3 -4 8 -12 -16 20 -22 -27 0
9 11 12 -15 -19 23 24 29 0
12 -14 -18 -19 -25 27 28 -29 0
-3 6 17 19 20 -24 -26 -28 0
-3 -4 10 12 -19 20 -26 30 0
6 7 10 -13 15 28 -29 30 0
4 6 -7 16 19 -23 -25 -29 0
-9 -10 12 13 -18 -19 -23 28 0
1 5 -16 -18 19 25 -29 30 0
-1 2 -16 18 -21 -27 -28 -29 0
-2 -4 -5 9 -16 17 18 20 0
1 -5 6 -12 17 -18 -21 -28 0
-2 9 11 -13 -16 20 -27 29 0
-12 14 17 20 21 -22 24 26 0
-2 9 13 -25 -27 28 29 -30 0
1 -4 5 -9 13 -17 -19 24 0
4 -11 -12 -17 20 -24 27 30 0
-7 10 17 18 -21 22 29 -30 0
-5 -8 -11 16 -22 -23 24 -27 0
-2 3 -14 15 23 26 -27 -29 0
-2 4 -5 15 -19 23 27 28 0
-1 -4 -15 -18 20 24 26 27 0
6 10 -13 -17 -18 22 -24 -30 0
-3 4 8 -12 -13 14 -16 18 0
-2 4 -5 -8 -14 16 -21 -23 0
3 -6 8 -9 11 -21 -23 26 0
-4 5 6 -17 -19 -23 -26 30 0
-3 -13 16 -17 19 22 -25 30 0
6 -7 -10 13 -14 -23 26 28 0
2 5 6 11 12 17 -19 -21 0
-5 -7 -10 -12 17 -20 -26 30 0
-8 9 -14 18 -20 22 25 29 0
-2 3 4 8 -9 10 -22 -24 0
3 8 -12 13 16 17 20 26 0
10 13 -14 15 -16 17 -19 -23 0
-1 -2 -11 -16 20 25 26 -28 0
-1 -5 -12 14 15 -20 -23 -30 0
10 14 -15 17 -22 23 25 27 0
4 12 13 -18 19 21 -22 24 0
-5 6 -8 10 -20 23 -28 -29 0
-7 12 -13 15 17 -18 -19 21 0
-3 8 9 -20 21 -22 -24 28 0
-3 -4 5 -7 -9 -19 -23 30 0
2 -3 6 15 -20 22 -24 -26 0
-4 5 11 -13 14 -19 -25 -28 0
-1 8 -10 -16 17 19 26 -29 0
-2 3 6 9 -16 24 25 -28 0
1 4 -14 -16 -17 -19 20 -23 0
2 3 -11 16 17 -21 -24 30 0
1 5 6 -13 -14 15 -27 -30 0
-2 6 -9 10 -15 22 26 29 0
2 -14 -17 -19 -23 24 27 -30 0
7 15 17 -24 -26 27 29 30 0
1 6 -15 21 -23 -24 -29 -30 0
-2 -4 5 -9 22 -25 26 29 0
2 4 5 -6 -11 20 -26 30 0
2 5 -12 15 -16 -18 -22 24 0
1 -4 14 15 -18 19 23 26 0
-1 -2 6 10 -12 -15 -22 -29 0
9 12 14 -16 20 -21 22 30 0
-4 5 -11 -18 -20 -27 -28 -29 0
3 4 -6 -7 11 -13 -24 25 0
4 -10 -14 -16 -19 -22 -27 -28 0
4 12 -15 17 23 -24 26 27 0
1 2 4 -9 -23 24 -25 28 0
2 -3 -7 10 -11 13 -18 -24 0
-2 10 11 -16 17 -18 -26 28 0
-5 7 -10 17 18 -19 25 27 0
2 -3 -9 10 17 -19 -26 -29 0
3 6 7 -13 -14 -20 24 29 0
-6 -8 16 21 -23 -27 -29 -30 0
-2 5 -6 -8 -18 -21 24 -25 0
-3 8 -10 -11 15 20 22 -27 0
8 -10 21 -24 25 -26 27 30 0
8 12 -20 -24 -25 -26 -28 -30 0
4 -6 -8 -10 -19 24 -27 30 0
-2 15 16 19 -20 -21 -22 26 0
1 6 12 -14 16 -24 -26 -30 0
-3 4 -6 11 13 19 21 25 0
6 16 17 18 19 -22 -23 30 0
4 -10 13 14 16 -17 -19 -20 0
8 -12 14 15 -17 24 27 30 0
-3 -5 7 8 -17 -22 -29 30 0
5 -7 -14 -15 21 24 26 -30 0
1 -2 7 -12 16 -19 -24 -29 0
1 3 -11 -14 -19 -25 -29 30 0
2 -7 11 12 17 18 -26 -29 0
1 -2 4 -5 18 -25 -27 -28 0
-3 -5 -7 12 18 28 29 30 0
-4 -9 -11 -16 18 26 28 -29 0
-4 5 9 12 -20 23 29 -30 0
-8 10 -11 15 18 -21 24 -25 0
2 -3 -5 -7 -15 22 -23 29 0
1 -3 9 10 -15 -18 -27 29 0
2 6 -7 -10 -17 25 26 -28 0
-4 -6 -9 17 20 -23 -27 30 0
3 -4 -15 -17 24 25 27 30 0
14 -15 -16 20 -21 -23 -26 -28 0
-3 -5 10 15 19 21 27 -30 0
-7 10 -11 -15 20 -22 23 29 0
6 9 12 -18 20 -22 23 -30 0
1 -4 5 9 -12 16 -20 29 0
-1 -2 -5 -8 -21 -24 -27 -30 0
3 -6 -13 -16 17 -20 -24 28 0
-1 -3 4 -14 19 -22 23 30 0
-3 -5 8 10 23 -24 26 -28 0
-1 -2 12 -14 -21 23 25 30 0
1 -2 -4 5 13 19 25 29 0
2 -5 6 11 -13 16 -23 26 0
1 -5 -7 -18 -21 -22 26 -30 0
-2 -3 -6 8 -9 16 20 28 0
2 -4 5 14 -19 21 -28 -30 0
-1 2 4 10 13 -17 -18 -25 0
-2 4 12 15 19 20 24 -29 0
-4 7 14 -17 18 22 23 27 0
4 5 7 8 -20 26 27 -29 0
4 5 7 -8 21 -28 -29 30 0
3 -4 8 -12 -16 17 -19 21 0
-1 6 10 12 -15 18 -22 -28 0
1 -2 3 -6 9 -11 -15 18 0
2 6 8 -11 -14 18 25 28 0
12 14 -15 18 -21 27 29 30 0
1 -7 -11 -15 -22 25 26 27 0
-3 5 -8 -10 -15 19 27 30 0
8 11 12 -14 -21 -23 -26 29 0
8 11 -17 20 26 27 28 -30 0
-5 7 12 15 -16 -23 -26 27 0
-6 7 15 17 19 20 -26 29 0
4 -13 -18 20 -22 25 -26 28 0
-2 6 8 11 -22 23 26 28 0
-2 5 6 -8 -11 -16 21 -27 0
1 3 -9 12 -16 -19 -23 -28 0
-10 13 -15 19 -22 -23 -26 -27 0
-3 5 10 -11 -12 17 -19 -21 0
-3 -13 -14 -16 19 -21 22 23 0
-2 7 10 -14 16 -17 19 20 0
3 -4 5 9 -11 12 -24 -25 0
4 -9 10 -24 -26 -27 -29 30 0
-2 -3 6 -14 -15 -18 24 30 0
1 -2 -11 12 16 -17 24 30 0
-2 -3 9 13 22 26 -27 -29 0
-2 -4 -5 12 -13 14 -16 -23 0
-9 12 -20 -21 -24 -25 -27 -28 0
-2 10 12 -13 -14 24 -27 29 0
5 6 8 11 -12 -19 28 -29 0
1 14 15 19 20 21 -25 26 0
1 4 7 -8 -20 22 -24 -29 0
-3 5 13 -18 -20 -23 27 29 0
1 4 5 7 -9 -23 24 -25 0
1 2 -3 13 14 18 -19 21 0
-5 -10 -11 17 20 -23 -24 -29 0
2 -5 12 -16 21 -25 -29 30 0
6 -9 -19 -20 -21 28 29 30 0
-2 -11 -12 17 18 26 28 -29 0
3 -5 -7 -8 15 -18 -19 21 0
3 -6 -9 -11 12 -24 -25 -26 0
2 -6 -15 17 18 -22 -24 -29 0
-16 17 -19 20 22 -25 26 29 0
4 -9 13 -19 22 -25 -28 -29 0
-7 11 -15 17 21 22 23 -24 0
3 5 -11 -12 -18 24 25 27 0
3 -5 7 -10 -14 17 -22 -28 0
4 5 -6 -10 17 -19 -25 28 0
2 -10 -12 14 -16 20 -21 28 0
3 -14 16 -20 21 25 27 -30 0
-1 -2 -3 -11 14 16 17 -19 0
-5 6 -8 -9 11 15 18 19 0
1 7 -12 -13 14 15 -21 23 0
4 -12 -14 17 18 -20 21 -29 0
-2 3 7 13 -14 -26 29 30 0
4 -6 -9 -12 16 23 -28 29 0
-3 8 10 12 13 -15 -20 -30 0
-1 3 -5 8 -18 -20 21 -29 0
-4 7 15 -16 -20 27 28 -29 0
-2 3 4 10 18 20 21 -23 0
-6 15 16 -17 22 24 26 29 0
4 -5 8 -12 -14 -21 28 30 0
-1 4 9 10 -11 -12 -15 -27 0
2 -3 -5 -7 10 -11 -13 -17 0
1 3 7 -9 -10 -18 22 -27 0
1 -3 6 -11 -15 21 25 -30 0
-4 5 -7 11 -13 14 -16 -20 0
-3 4 11 -22 23 -26 -27 28 0
-2 3 15 19 21 25 -26 30 0
-1 -4 16 -17 -19 20 -21 -26 0
1 -3 17 18 -19 -20 -25 27 0
-3 -7 8 -16 18 -19 20 -23 0
-6 11 -12 -14 -16 20 26 -28 0
-1 11 15 17 -20 -21 26 -29 0
-12 -13 15 18 20 24 28 30 0
7 -9 -12 19 -20 -26 -29 30 0
16 -20 21 -23 -24 -25 -28 29 0
-1 -2 3 -4 -17 24 25 28 0
-4 9 -15 18 19 21 -24 26 0
4 -5 -6 -11 12 15 19 21 0
2 -3 -4 6 -15 22 -23 -27 0
5 -6 7 17 18 21 22 29 0
1 5 -8 -10 -11 15 16 28 0
2 6 -7 13 14 -19 20 -29 0
11 -16 -19 21 22 25 26 -30 0
-6 7 13 20 -21 28 29 -30 0
8 12 -17 18 20 -22 24 30 0
3 -4 -7 11 -13 14 17 26 0
3 -7 8 14 18 23 -25 -30 0
2 3 -4 -11 14 20 -23 25 0
7 -9 -17 18 20 21 29 -30 0
-1 -2 -11 -12 17 -20 22 -25 0
-3 -4 6 10 17 21 23 28 0
-1 5 7 -9 -10 12 23 24 0
6 9 -11 15 -21 25 -26 30 0
5 -8 -12 -14 -21 22 25 -26 0
-7 8 10 11 -12 -14 -17 29 0
-2 5 6 -14 -24 27 -29 30 0
-2 4 9 14 21 25 -26 -30 0
-6 10 12 -16 -17 22 -23 -28 0
1 8 -13 18 -19 -22 -26 27 0
3 6 -10 11 -12 -15 -20 25 0
3 4 -5 -12 16 -21 -25 -27 0
-3 7 -8 10 14 20 25 26 0
-3 -6 14 -19 21 24 -27 -30 0
8 16 -17 19 22 24 -27 29 0
-4 -7 -9 -10 18 -20 -22 25 0
-8 -9 11 13 16 19 -22 25 0
6 -7 -9 -18 -20 22 -23 30 0
-1 -12 14 22 -23 24 26 -30 0
10 11 -12 17 -19 22 23 30 0
-1 -2 -13 -19 -20 -21 25 26 0
1 -2 -8 10 -16 -18 22 23 0
3 -12 13 -14 16 -22 -26 -29 0
-6 8 -9 16 18 19 -26 -28 0
-4 7 13 15 -16 -17 -20 -24 0
3 -10 11 15 -20 -22 28 30 0
2 -9 10 -19 -21 -26 -29 30 0
-5 6 -7 10 -14 19 22 29 0
2 4 -5 6 17 19 23 24 0
-2 7 8 9 -15 -19 26 -27 0
-4 -7 8 12 19 -26 -28 29 0
2 -3 6 7 -12 -20 25 -30 0
5 -6 -7 8 13 14 -18 27 0
2 -7 -10 -11 -22 23 26 30 0
2 3 8 -11 -19 -26 -29 -30 0
-5 7 -10 14 16 -18 20 22 0
-3 -7 -10 14 -26 27 -29 -30 0
-7 8 16 17 -20 -21 24 26 0
1 3 6 11 15 25 -27 30 0
3 11 -15 18 -20 21 -25 28 0
2 -6 10 -14 15 16 -19 29 0
-1 2 4 -5 10 21 -24 25 0
-3 4 -6 7 -11 -12 21 22 0
-4 7 9 -16 17 26 27 -28 0
8 -12 -13 20 23 -24 -25 -30 0
-1 -4 -8 14 -15 -18 22 -29 0
8 -10 -12 -15 -16 24 -25 28 0
1 4 10 12 13 14 -22 29 0
-2 -4 10 17 -18 23 24 25 0
5 -6 10 19 22 -25 -27 -30 0
-4 -6 9 -16 19 -22 -23 -25 0
-4 5 -7 9 18 -19 -22 -25 0
6 -11 12 15 18 22 -23 25 0
1 -8 9 16 -17 21 25 27 0
1 8 -11 15 16 19 -20 -23 0
2 -4 -5 -6 -20 -21 -22 -28 0
-1 10 -18 20 23 24 -26 -27 0
3 4 -9 -16 -21 28 29 -30 0
12 -15 18 -19 25 26 27 28 0
4 6 -10 15 17 -21 23 26 0
7 8 -11 16 23 -25 -27 -30 0
-2 -4 5 8 18 -23 -24 26 0
-2 4 -14 -18 21 22 -23 -25 0
2 6 7 8 -17 -27 -29 30 0
-5 6 -11 13 -23 25 29 -30 0
1 3 6 -10 15 22 24 27 0
-2 -5 6 -9 -19 21 22 -23 0
2 4 -8 12 -14 -18 20 26 0
-1 3 5 -10 -12 -13 17 -28 0
3 -6 7 9 -18 22 -23 24 0
-5 -9 -14 -15 18 20 -23 -26 0
1 -4 -7 -14 -17 19 27 30 0
1 -2 10 13 17 23 25 26 0
3 -4 5 -9 17 25 28 29 0
1 7 8 -15 16 -22 26 -29 0
-1 3 -5 -8 -13 18 -19 28 0
-1 -5 -8 9 -13 -14 17 -19 0
-2 7 12 -13 -18 23 26 29 0
-10 -11 -12 13 -14 -22 -26 -27 0
1 -2 4 -10 -16 26 -27 28 0
11 -16 17 18 -21 -24 25 30 0
2 -14 -15 -16 -17 -22 27 28 0
